(set-logic QF_NRA)
(declare-fun v0 () Real)
(declare-fun th0 () Real)
(declare-fun zp_0_2 () Real)
(declare-fun zq_0_2 () Real)
(declare-fun v2 () Real)
(declare-fun th2 () Real)
(declare-fun zp_4_0 () Real)
(declare-fun zp_2_0 () Real)
(declare-fun zq_2_0 () Real)
(declare-fun v4 () Real)
(declare-fun th4 () Real)
(declare-fun zq_4_0 () Real)
(assert (<= v0 2))
(assert (>= v0 0))
(assert (<= th0 4))
(assert (>= th0 -4))
(assert (<= zp_0_2 3))
(assert (>= zp_0_2 -3))
(assert (<= zq_0_2 3))
(assert (>= zq_0_2 -3))
(assert (<= v2 2))
(assert (>= v2 0))
(assert (<= th2 4))
(assert (>= th2 -4))
(assert (<= zp_4_0 3))
(assert (>= zp_4_0 -3))
(assert (<= zp_2_0 3))
(assert (>= zp_2_0 -3))
(assert (<= zq_2_0 3))
(assert (>= zq_2_0 -3))
(assert (<= v4 2))
(assert (>= v4 0))
(assert (<= th4 4))
(assert (>= th4 -4))
(assert (<= zq_4_0 3))
(assert (>= zq_4_0 -3))
(assert (and (and (and (and (and (and (and true (and (= zp_4_0 (- (- (* (^ v4 2) 0.160549) (* v4 (* v0 (* 0.160549 (cos (- th4 th0)))))) (* v4 (* v0 (* 0.199192 (sin (- th4 th0))))))) (= zq_4_0 (- (- (- 0 (* (^ v4 2) 0.160549)) (* v4 (* v0 (* 0.199192 (cos (- th4 th0)))))) (* v4 (* v0 (* 0.160549 (sin (- th4 th0))))))))) (and (= zp_0_2 (- (- (* (^ v0 2) 0.156208) (* v0 (* v2 (* 0.156208 (cos (- th0 th2)))))) (* v0 (* v2 (* 0.184874 (sin (- th0 th2))))))) (= zq_0_2 (- (- (- 0 (* (^ v0 2) 0.156208)) (* v0 (* v2 (* 0.184874 (cos (- th0 th2)))))) (* v0 (* v2 (* 0.156208 (sin (- th0 th2))))))))) (and (= zp_2_0 (- (- (* (^ v2 2) 0.156208) (* v2 (* v0 (* 0.156208 (cos (- th2 th0)))))) (* v2 (* v0 (* 0.184874 (sin (- th2 th0))))))) (= zq_2_0 (- (- (- 0 (* (^ v2 2) 0.156208)) (* v2 (* v0 (* 0.184874 (cos (- th2 th0)))))) (* v2 (* v0 (* 0.156208 (sin (- th2 th0))))))))) (and (= zp_0_2 (- (- (* (^ v0 2) 0.156208) (* v0 (* v2 (* 0.156208 (cos (- th0 th2)))))) (* v0 (* v2 (* 0.184874 (sin (- th0 th2))))))) (= zq_0_2 (- (- (- 0 (* (^ v0 2) 0.156208)) (* v0 (* v2 (* 0.184874 (cos (- th0 th2)))))) (* v0 (* v2 (* 0.156208 (sin (- th0 th2))))))))) (and (= zp_2_0 (- (- (* (^ v2 2) 0.156208) (* v2 (* v0 (* 0.156208 (cos (- th2 th0)))))) (* v2 (* v0 (* 0.184874 (sin (- th2 th0))))))) (= zq_2_0 (- (- (- 0 (* (^ v2 2) 0.156208)) (* v2 (* v0 (* 0.184874 (cos (- th2 th0)))))) (* v2 (* v0 (* 0.156208 (sin (- th2 th0))))))))) (and (= zp_0_2 (- (- (* (^ v0 2) 0.156208) (* v0 (* v2 (* 0.156208 (cos (- th0 th2)))))) (* v0 (* v2 (* 0.184874 (sin (- th0 th2))))))) (= zq_0_2 (- (- (- 0 (* (^ v0 2) 0.156208)) (* v0 (* v2 (* 0.184874 (cos (- th0 th2)))))) (* v0 (* v2 (* 0.156208 (sin (- th0 th2))))))))) (and (= zp_2_0 (- (- (* (^ v2 2) 0.156208) (* v2 (* v0 (* 0.156208 (cos (- th2 th0)))))) (* v2 (* v0 (* 0.184874 (sin (- th2 th0))))))) (= zq_2_0 (- (- (- 0 (* (^ v2 2) 0.156208)) (* v2 (* v0 (* 0.184874 (cos (- th2 th0)))))) (* v2 (* v0 (* 0.156208 (sin (- th2 th0))))))))))
(check-sat)
(exit)
